(declare-fun ExpandObjSwitcher () Real)
(declare-fun CreateAsClass () Bool)
(assert (not (= ExpandObjSwitcher 0.0)))
(assert (not (= ExpandObjSwitcher 1.0)))
(assert (not (= ExpandObjSwitcher 2.0)))
(assert (not (= ExpandObjSwitcher 3.0)))
(assert (not (= ExpandObjSwitcher 4.0)))
(assert (not (= ExpandObjSwitcher 5.0)))
(assert (not (= ExpandObjSwitcher 6.0)))
(assert (not (= ExpandObjSwitcher 7.0)))
(assert (= ExpandObjSwitcher 8.0))
(assert CreateAsClass)
(check-sat)
